CPXPARAM_Read_DataCheck                          1
Found incumbent of value 0.000000 after 0.00 sec. (0.26 ticks)
Tried aggregator 1 time.
MIP Presolve modified 1 coefficients.
Reduced MIP has 2016 rows, 10005 columns, and 50020 nonzeros.
Reduced MIP has 10005 binaries, 0 generals, 0 SOSs, and 0 indicators.
Presolve time = 0.01 sec. (16.90 ticks)
Probing time = 0.00 sec. (4.23 ticks)
Tried aggregator 1 time.
Reduced MIP has 2016 rows, 10005 columns, and 50020 nonzeros.
Reduced MIP has 10005 binaries, 0 generals, 0 SOSs, and 0 indicators.
Presolve time = 0.01 sec. (21.01 ticks)
Probing time = 0.01 sec. (4.23 ticks)
Clique table members: 19747.
MIP emphasis: balance optimality and feasibility.
MIP search method: dynamic search.
Parallel mode: deterministic, using up to 4 threads.
Root relaxation solution time = 0.08 sec. (108.11 ticks)

        Nodes                                         Cuts/
   Node  Left     Objective  IInf  Best Integer    Best Bound    ItCnt     Gap

*     0+    0                            0.0000    62256.0000              --- 
      0     0    32539.3290     5        0.0000    32539.3290     2738     --- 
*     0+    0                        21319.0000    32539.3290            52.63%
      0     0        cutoff          21319.0000    21319.0000     5208    0.00%
Elapsed time = 2.84 sec. (1732.75 ticks, tree = 0.01 MB, solutions = 2)

Clique cuts applied:  591
Cover cuts applied:  2
Mixed integer rounding cuts applied:  7
Gomory fractional cuts applied:  4

Root node processing (before b&c):
  Real time             =    2.84 sec. (1733.44 ticks)
Parallel b&c, 4 threads:
  Real time             =    0.00 sec. (0.00 ticks)
  Sync time (average)   =    0.00 sec.
  Wait time (average)   =    0.00 sec.
                          ------------
Total (root+branch&cut) =    2.84 sec. (1733.44 ticks)
